 vasp.5.3.3 18Dez12 (build Jan 17 2013 15:17:09) complex

 executed on             LinuxIFC date 2017.11.27  19:51:07

 INCAR:
 POTCAR:    PAW_PBE Cu 22Jun2005

 POTCAR:    PAW_PBE Cu 22Jun2005

  PAW_PBE Cu 22Jun2005                  :

 POSCAR: Cu\(1\1\1)
  positions in direct lattice
  velocities in cartesian coordinates
 exchange correlation table for  LEXCH =        8
   RHO(1)=    0.500       N(1)  =     2000
   RHO(2)=  100.500       N(2)  =     4000

 ion  position               nearest neighbor table
   1  0.000  0.000  0.000-   2 2.57   2 2.57   2 2.57
   2  0.333  0.667  0.099-   4 2.56   4 2.56   4 2.56   1 2.57   1 2.57   1 2.57
   3  0.000  1.000  0.294-   4 2.55   4 2.55   4 2.55
   4  0.667  0.333  0.197-   3 2.55   3 2.55   3 2.55   2 2.56   2 2.56   2 2.56

  LATTYP: Found a hexagonal cell.
 ALAT       =     2.5717000961
 C/A-ratio  =     8.2822255836

  Lattice vectors:

 A1 = (   2.5717000961,   0.0000000000,   0.0000000000)
 A2 = (  -1.2858500481,   2.2271576142,   0.0000000000)
 A3 = (   0.0000000000,   0.0000000000,  21.2994003296)

Analysis of symmetry for initial positions (statically):
 Subroutine PRICEL returns:
 Original cell was already a primitive cell.

 Routine SETGRP: Setting up the symmetry group for a
 hexagonal supercell.

 Subroutine GETGRP returns: Found  2 space group operations
 (whereof  2 operations were pure point group operations)
 out of a pool of 24 trial point group operations.

The static configuration has the point symmetry C_1h.

Analysis of symmetry for dynamics (positions and initial velocities):
 Subroutine PRICEL returns:
 Original cell was already a primitive cell.

[...]

The dynamic configuration has the point symmetry C_1h.

Analysis of constrained symmetry for selective dynamics:
 Subroutine PRICEL returns:
 Original cell was already a primitive cell.

 Routine SETGRP: Setting up the symmetry group for a
 hexagonal supercell.

 Subroutine GETGRP returns: Found  2 space group operations
 (whereof  2 operations were pure point group operations)
 out of a pool of 24 trial point group operations.

The constrained configuration has the point symmetry C_1h.

 irot  :   1
 isymop:   1   0   0
           0   1   0
           0   0   1

 gtrans:     0.0000000     0.0000000     0.0000000

 ptrans:     0.0000000     0.0000000     0.0000000
 rotmap:
 (   1->   1)  (   2->   2)  (   3->   3)  (   4->   4)

 irot  :   2
 isymop:   0  -1   0
          -1   0   0
           0   0   1

 gtrans:     0.0000000     0.0000000     0.0000000

 ptrans:     0.0000000     0.0000000     0.0000000
 rotmap:
 (   1->   1)  (   2->   2)  (   3->   3)  (   4->   4)

 KPOINTS: K-POINTS

Automatic generation of k-mesh.
Space group operators:
 irot       det(A)        alpha          n_x          n_y          n_z        tau_x        tau_y        tau_z
    1     1.000000     0.000001     1.000000     0.000000     0.000000     0.000000     0.000000     0.000000
    2    -1.000000   180.000000    -0.500000    -0.866025     0.000000     0.000000     0.000000     0.000000

 Subroutine IBZKPT returns following result:

 Found     49 irreducible k-points:

 Following reciprocal coordinates:
            Coordinates               Weight
  0.000000  0.000000  0.000000      1.000000
  0.076923  0.000000  0.000000      4.000000
  0.153846  0.000000  0.000000      4.000000
  0.230769  0.000000  0.000000      4.000000
  0.307692  0.000000  0.000000      4.000000
  0.384615  0.000000  0.000000      4.000000
  0.461538  0.000000  0.000000      4.000000
  0.076923  0.076923  0.000000      2.000000
  0.153846  0.076923  0.000000      4.000000
  0.230769  0.076923  0.000000      4.000000
  0.307692  0.076923  0.000000      4.000000
  0.384615  0.076923  0.000000      4.000000
  0.461538  0.076923  0.000000      4.000000
 -0.461538  0.076923  0.000000      4.000000
 -0.384615  0.076923  0.000000      4.000000
 -0.307692  0.076923  0.000000      4.000000
 -0.230769  0.076923  0.000000      4.000000
 -0.153846  0.076923  0.000000      4.000000
 -0.076923  0.076923  0.000000      2.000000
  0.153846  0.153846  0.000000      2.000000
  0.230769  0.153846  0.000000      4.000000
  0.307692  0.153846  0.000000      4.000000
  0.384615  0.153846  0.000000      4.000000
  0.461538  0.153846  0.000000      4.000000
 -0.461538  0.153846  0.000000      4.000000
 -0.384615  0.153846  0.000000      4.000000
 -0.307692  0.153846  0.000000      4.000000
 -0.230769  0.153846  0.000000      4.000000
 -0.153846  0.153846  0.000000      2.000000
  0.230769  0.230769  0.000000      2.000000
  0.307692  0.230769  0.000000      4.000000
  0.384615  0.230769  0.000000      4.000000
  0.461538  0.230769  0.000000      4.000000
 -0.461538  0.230769  0.000000      4.000000
 -0.384615  0.230769  0.000000      4.000000
 -0.307692  0.230769  0.000000      4.000000
 -0.230769  0.230769  0.000000      2.000000
  0.307692  0.307692  0.000000      2.000000
  0.384615  0.307692  0.000000      4.000000
  0.461538  0.307692  0.000000      4.000000
 -0.461538  0.307692  0.000000      4.000000
 -0.384615  0.307692  0.000000      4.000000
 -0.307692  0.307692  0.000000      2.000000
  0.384615  0.384615  0.000000      2.000000
  0.461538  0.384615  0.000000      4.000000
 -0.461538  0.384615  0.000000      4.000000
 -0.384615  0.384615  0.000000      2.000000
  0.461538  0.461538  0.000000      2.000000
 -0.461538  0.461538  0.000000      2.000000

 Following cartesian coordinates:
            Coordinates               Weight
  0.000000  0.000000  0.000000      1.000000
  0.029911  0.017269  0.000000      4.000000
  0.059823  0.034539  0.000000      4.000000
  0.089734  0.051808  0.000000      4.000000
  0.119645  0.069077  0.000000      4.000000
  0.149557  0.086347  0.000000      4.000000
  0.179468  0.103616  0.000000      4.000000
  0.029911  0.051808  0.000000      2.000000
  0.059823  0.069077  0.000000      4.000000
  0.089734  0.086347  0.000000      4.000000
  0.119645  0.103616  0.000000      4.000000
  0.149557  0.120885  0.000000      4.000000
  0.179468  0.138155  0.000000      4.000000
 -0.179468 -0.069077  0.000000      4.000000
 -0.149557 -0.051808  0.000000      4.000000
 -0.119645 -0.034539  0.000000      4.000000
 -0.089734 -0.017269  0.000000      4.000000
 -0.059823  0.000000  0.000000      4.000000
 -0.029911  0.017269  0.000000      2.000000
  0.059823  0.103616  0.000000      2.000000
  0.089734  0.120885  0.000000      4.000000
  0.119645  0.138155  0.000000      4.000000
  0.149557  0.155424  0.000000      4.000000
  0.179468  0.172693  0.000000      4.000000
 -0.179468 -0.034539  0.000000      4.000000
 -0.149557 -0.017269  0.000000      4.000000
 -0.119645  0.000000  0.000000      4.000000
 -0.089734  0.017269  0.000000      4.000000
 -0.059823  0.034539  0.000000      2.000000
  0.089734  0.155424  0.000000      2.000000
  0.119645  0.172693  0.000000      4.000000
  0.149557  0.189963  0.000000      4.000000
  0.179468  0.207232  0.000000      4.000000
 -0.179468  0.000000  0.000000      4.000000
 -0.149557  0.017269  0.000000      4.000000
 -0.119645  0.034539  0.000000      4.000000
 -0.089734  0.051808  0.000000      2.000000
  0.119645  0.207232  0.000000      2.000000
  0.149557  0.224501  0.000000      4.000000
  0.179468  0.241771  0.000000      4.000000
 -0.179468  0.034539  0.000000      4.000000
 -0.149557  0.051808  0.000000      4.000000
 -0.119645  0.069077  0.000000      2.000000
  0.149557  0.259040  0.000000      2.000000
  0.179468  0.276309  0.000000      4.000000
 -0.179468  0.069077  0.000000      4.000000
 -0.149557  0.086347  0.000000      2.000000
  0.179468  0.310848  0.000000      2.000000
 -0.179468  0.103616  0.000000      2.000000

 I would recommend the setting:
   dimension x,y,z NGX =    13 NGY =   13 NGZ =  111
 SYSTEM =  Cu111
 POSCAR =  Cu\(1\1\1)

 Startparameter for this run:
   NWRITE =      0    write-flag & timer
   PREC   = normal    normal or accurate (medium, high low for compatibility)
   ISTART =      0    job   : 0-new  1-cont  2-samecut
   ICHARG =      2    charge: 1-file 2-atom 10-const
   ISPIN  =      1    spin polarized calculation?
   LNONCOLLINEAR =      F non collinear calculations
   LSORBIT =      F    spin-orbit coupling
   INIWAV =      1    electr: 0-lowe 1-rand  2-diag
   LASPH  =      F    aspherical Exc in radial PAW
   METAGGA=      F    non-selfconsistent MetaGGA calc.

 Electronic Relaxation 1
   ENCUT  =  450.0 eV  33.07 Ry    5.75 a.u.   4.45  4.45 36.84*2*pi/ulx,y,z
   ENINI  =  450.0     initial cutoff
   ENAUG  =  587.0 eV  augmentation charge cutoff
   NELM   =     60;   NELMIN=  2; NELMDL= -5     # of ELM steps
   EDIFF  = 0.1E-04   stopping-criterion for ELM
   LREAL  =      F    real-space projection
   NLSPLINE    = F    spline interpolate recip. space projectors
   LCOMPAT=      F    compatible to vasp.4.4
   GGA_COMPAT  = T    GGA compatible to vasp.4.4-vasp.4.6
   LMAXPAW     = -100 max onsite density
   LMAXMIX     =    2 max onsite mixed and CHGCAR
   VOSKOWN=      0    Vosko Wilk Nusair interpolation
   ROPT   =    0.00000
 Ionic relaxation
   EDIFFG = -.1E-01   stopping-criterion for IOM
   NSW    =      1    number of steps for IOM
   NBLOCK =      1;   KBLOCK =      1    inner block; outer block
   IBRION =      2    ionic relax: 0-MD 1-quasi-New 2-CG
   NFREE  =      1    steps in history (QN), initial steepest desc. (CG)
   ISIF   =      2    stress and relaxation
   IWAVPR =     11    prediction:  0-non 1-charg 2-wave 3-comb
   ISYM   =      2    0-nonsym 1-usesym 2-fastsym
   LCORR  =      T    Harris-Foulkes like correction to forces

   POTIM  = 0.1000    time-step for ionic-motion
   TEIN   =    0.0    initial temperature
   TEBEG  =    0.0;   TEEND  =   0.0 temperature during run
   SMASS  =  -3.00    Nose mass-parameter (am)
   estimated Nose-frequenzy (Omega)   =  0.10E-29 period in steps =****** mass=  -0.151E-27a.u.
   SCALEE = 1.0000    scale energy and forces
   NPACO  =    256;   APACO  = 16.0  distance and # of slots for P.C.
   PSTRESS=    0.0 pullay stress

  Mass of Ions in am
   POMASS =  63.55
  Ionic Valenz
   ZVAL   =  11.00
  Atomic Wigner-Seitz radii
  virtual crystal weights
   VCA    =   1.00
   NELECT =      44.0000    total number of electrons
   NUPDOWN=      -1.0000    fix difference up-down

 DOS related values:
   EMIN   =  10.00;   EMAX   =-10.00  energy-range for DOS
   EFERMI =   0.00
   ISMEAR =     1;   SIGMA  =   0.20  broadening in eV -4-tet -1-fermi 0-gaus

 Electronic relaxation 2 (details)
   IALGO  =     68    algorithm
   LDIAG  =      T    sub-space diagonalisation (order eigenvalues)
   LSUBROT=      T    optimize rotation matrix (better conditioning)
   TURBO    =      0    0=normal 1=particle mesh
   IRESTART =      0    0=no restart 2=restart with 2 vectors
   NREBOOT  =      0    no. of reboots
   NMIN     =      0    reboot dimension
   EREF     =   0.00    reference energy to select bands
   IMIX   =      4    mixing-type and parameters
     AMIX     =   0.40;   BMIX     =  1.00
     AMIX_MAG =   1.60;   BMIX_MAG =  1.00
     AMIN     =   0.10
     WC   =   100.;   INIMIX=   1;  MIXPRE=   1;  MAXMIX= -45

 Intra band minimization:
[...]
  -0.17946823  0.00000000  0.00000000       0.024
  -0.14955686  0.01726934  0.00000000       0.024
  -0.11964549  0.03453868  0.00000000       0.024
  -0.08973411  0.05180802  0.00000000       0.012
   0.11964549  0.20723206  0.00000000       0.012
   0.14955686  0.22450140  0.00000000       0.024
   0.17946823  0.24177074  0.00000000       0.024
  -0.17946823  0.03453868  0.00000000       0.024
  -0.14955686  0.05180802  0.00000000       0.024
  -0.11964549  0.06907735  0.00000000       0.012
   0.14955686  0.25904008  0.00000000       0.012
   0.17946823  0.27630941  0.00000000       0.024
  -0.17946823  0.06907735  0.00000000       0.024
  -0.14955686  0.08634669  0.00000000       0.012
   0.17946823  0.31084809  0.00000000       0.012
  -0.17946823  0.10361603  0.00000000       0.012

 k-points in reciprocal lattice and weights: K-POINTS
   0.00000000  0.00000000  0.00000000       0.006
   0.07692308  0.00000000  0.00000000       0.024
   0.15384615  0.00000000  0.00000000       0.024
   0.23076923  0.00000000  0.00000000       0.024
   0.30769231  0.00000000  0.00000000       0.024
   0.38461538  0.00000000  0.00000000       0.024
   0.46153846  0.00000000  0.00000000       0.024
   0.07692308  0.07692308  0.00000000       0.012
   0.15384615  0.07692308  0.00000000       0.024
   0.23076923  0.07692308  0.00000000       0.024
   0.30769231  0.07692308  0.00000000       0.024
   0.38461538  0.07692308  0.00000000       0.024
   0.46153846  0.07692308  0.00000000       0.024
  -0.46153846  0.07692308  0.00000000       0.024
  -0.38461538  0.07692308  0.00000000       0.024
  -0.30769231  0.07692308  0.00000000       0.024
  -0.23076923  0.07692308  0.00000000       0.024
  -0.15384615  0.07692308  0.00000000       0.024
  -0.07692308  0.07692308  0.00000000       0.012
   0.15384615  0.15384615  0.00000000       0.012
   0.23076923  0.15384615  0.00000000       0.024
   0.30769231  0.15384615  0.00000000       0.024
   0.38461538  0.15384615  0.00000000       0.024
   0.46153846  0.15384615  0.00000000       0.024
  -0.46153846  0.15384615  0.00000000       0.024
  -0.38461538  0.15384615  0.00000000       0.024
  -0.30769231  0.15384615  0.00000000       0.024
  -0.23076923  0.15384615  0.00000000       0.024
  -0.15384615  0.15384615  0.00000000       0.012
   0.23076923  0.23076923  0.00000000       0.012
   0.30769231  0.23076923  0.00000000       0.024
   0.38461538  0.23076923  0.00000000       0.024
   0.46153846  0.23076923  0.00000000       0.024
  -0.46153846  0.23076923  0.00000000       0.024
  -0.38461538  0.23076923  0.00000000       0.024
  -0.30769231  0.23076923  0.00000000       0.024
  -0.23076923  0.23076923  0.00000000       0.012
   0.30769231  0.30769231  0.00000000       0.012
   0.38461538  0.30769231  0.00000000       0.024
   0.46153846  0.30769231  0.00000000       0.024
  -0.46153846  0.30769231  0.00000000       0.024
  -0.38461538  0.30769231  0.00000000       0.024
  -0.30769231  0.30769231  0.00000000       0.012
   0.38461538  0.38461538  0.00000000       0.012
   0.46153846  0.38461538  0.00000000       0.024
  -0.46153846  0.38461538  0.00000000       0.024
  -0.38461538  0.38461538  0.00000000       0.012
   0.46153846  0.46153846  0.00000000       0.012
  -0.46153846  0.46153846  0.00000000       0.012

 position of ions in fractional coordinates (direct lattice)
   0.00000000  0.00000000  0.00000000
   0.33333001  0.66667002  0.09859000
   0.00000473  0.99999527  0.29387060
   0.66666776  0.33333227  0.19667340

 position of ions in cartesian coordinates  (Angst):
   0.00000000  0.00000000  0.00000000
  -0.00001288  1.48477922  2.09990790
  -1.28583180  2.22714708  6.25926766
   1.28585422  0.74238351  4.18902559

 k-point  1 :   0.0000 0.0000 0.0000  plane waves:    2683
 k-point  2 :   0.0769 0.0000 0.0000  plane waves:    2693
 k-point  3 :   0.1538 0.0000 0.0000  plane waves:    2686
 k-point  4 :   0.2308 0.0000 0.0000  plane waves:    2672
 k-point  5 :   0.3077 0.0000 0.0000  plane waves:    2650
 k-point  6 :   0.3846 0.0000 0.0000  plane waves:    2640
 k-point  7 :   0.4615 0.0000 0.0000  plane waves:    2620
 k-point  8 :   0.0769 0.0769 0.0000  plane waves:    2691
 k-point  9 :   0.1538 0.0769 0.0000  plane waves:    2683
 k-point 10 :   0.2308 0.0769 0.0000  plane waves:    2653
 k-point 11 :   0.3077 0.0769 0.0000  plane waves:    2648
 k-point 12 :   0.3846 0.0769 0.0000  plane waves:    2612
 k-point 13 :   0.4615 0.0769 0.0000  plane waves:    2612
 k-point 14 :  -0.4615 0.0769 0.0000  plane waves:    2612
 k-point 15 :  -0.3846 0.0769 0.0000  plane waves:    2648
 k-point 16 :  -0.3077 0.0769 0.0000  plane waves:    2653
 k-point 17 :  -0.2308 0.0769 0.0000  plane waves:    2683
 k-point 18 :  -0.1538 0.0769 0.0000  plane waves:    2691
 k-point 19 :  -0.0769 0.0769 0.0000  plane waves:    2693
 k-point 20 :   0.1538 0.1538 0.0000  plane waves:    2663
 k-point 21 :   0.2308 0.1538 0.0000  plane waves:    2652
 k-point 22 :   0.3077 0.1538 0.0000  plane waves:    2624
 k-point 23 :   0.3846 0.1538 0.0000  plane waves:    2615
 k-point 24 :   0.4615 0.1538 0.0000  plane waves:    2615
 k-point 25 :  -0.4615 0.1538 0.0000  plane waves:    2624
 k-point 26 :  -0.3846 0.1538 0.0000  plane waves:    2652
 k-point 27 :  -0.3077 0.1538 0.0000  plane waves:    2663
 k-point 28 :  -0.2308 0.1538 0.0000  plane waves:    2683
 k-point 29 :  -0.1538 0.1538 0.0000  plane waves:    2686
 k-point 30 :   0.2308 0.2308 0.0000  plane waves:    2628
 k-point 31 :   0.3077 0.2308 0.0000  plane waves:    2630
 k-point 32 :   0.3846 0.2308 0.0000  plane waves:    2626
 k-point 33 :   0.4615 0.2308 0.0000  plane waves:    2630
 k-point 34 :  -0.4615 0.2308 0.0000  plane waves:    2628
 k-point 35 :  -0.3846 0.2308 0.0000  plane waves:    2652
 k-point 36 :  -0.3077 0.2308 0.0000  plane waves:    2653
 k-point 37 :  -0.2308 0.2308 0.0000  plane waves:    2672
 k-point 38 :   0.3077 0.3077 0.0000  plane waves:    2632
 k-point 39 :   0.3846 0.3077 0.0000  plane waves:    2632
 k-point 40 :   0.4615 0.3077 0.0000  plane waves:    2630
 k-point 41 :  -0.4615 0.3077 0.0000  plane waves:    2624
 k-point 42 :  -0.3846 0.3077 0.0000  plane waves:    2648
 k-point 43 :  -0.3077 0.3077 0.0000  plane waves:    2650
 k-point 44 :   0.3846 0.3846 0.0000  plane waves:    2626
 k-point 45 :   0.4615 0.3846 0.0000  plane waves:    2615
 k-point 46 :  -0.4615 0.3846 0.0000  plane waves:    2612
 k-point 47 :  -0.3846 0.3846 0.0000  plane waves:    2640
 k-point 48 :   0.4615 0.4615 0.0000  plane waves:    2612
 k-point 49 :  -0.4615 0.4615 0.0000  plane waves:    2620

 maximum and minimum number of plane-waves per node :      2693     2612

 maximum number of plane-waves:      2693
 maximum index in each direction:
   IXMAX=    4   IYMAX=    4   IZMAX=   36
   IXMIN=   -4   IYMIN=   -4   IZMIN=  -36

 WARNING: aliasing errors must be expected set NGX to  18 to avoid them
 WARNING: aliasing errors must be expected set NGY to  18 to avoid them
 WARNING: aliasing errors must be expected set NGZ to 146 to avoid them
 aliasing errors are usually negligible using standard VASP settings
 and one can safely disregard these warnings

 serial   3D FFT for wavefunctions
 parallel 3D FFT for charge:
    minimum data exchange during FFTs selected (reduces bandwidth)

 Broyden mixing: mesh for mixing (old mesh)
   NGX =  9   NGY =  9   NGZ = 73
  (NGX  = 28   NGY  = 28   NGZ  =224)
  gives a total of   5913 points

 initial charge density was supplied:
 charge density of overlapping atoms calculated
 number of electron      44.0000000 magnetization
 keeping initial charge density in first step

 Maximum index for augmentation-charges          785 (set IRDMAX)

 First call to EWALD:  gamma=   0.357
 Maximum number of real-space cells 6x 6x 1
 Maximum number of reciprocal cells 2x 2x10

 FEWALD executed in parallel

----------------------------------------- Iteration    1(   1)  ---------------------------------------

 eigenvalue-minimisations  :  3136
 total energy-change (2. order) : 0.3472061E+03  (-0.1780114E+04)
 number of electron      44.0000000 magnetization
 augmentation part       44.0000000 magnetization

 Free energy of the ion-electron system (eV)
  alpha Z        PSCENC =        95.91655142
  Ewald energy   TEWEN  =     16486.15309932
  -1/2 Hartree   DENC   =    -21847.22436455
  -exchange  EXHF       =         0.00000000
  -V(xc)+E(xc)   XCENC  =       182.03753322
  PAW double counting   =      4912.82663951    -5336.19386850
  entropy T*S    EENTRO =         0.00615139
  eigenvalues    EBANDS =       289.79989791
  atomic energy  EATOM  =      5563.88447798
  free energy    TOTEN  =       347.20611769 eV

  energy without entropy =      347.19996630  energy(sigma->0) =      347.20406723

[...]

 eigenvalue-minimisations  :  3136
 total energy-change (2. order) :-0.3356714E+03  (-0.3201114E+03)
 number of electron      44.0000000 magnetization
 augmentation part       44.0000000 magnetization

[...]

 Broyden mixing:
  rms(total) = 0.14791E+01    rms(broyden)= 0.14791E+01
  rms(prec ) = 0.15742E+01
  weight for this iteration     100.00

[...]

 eigenvalues of (default mixing * dielectric matrix)
  average eigenvalue GAMMA=   0.6234
  0.6234

[...]

 eigenvalue-minimisations  :  2888
 total energy-change (2. order) : 0.1737680E-04  (-0.6372664E-05)
 number of electron      43.9999826 magnetization
 augmentation part       28.0976842 magnetization

[...]

 Broyden mixing:
  rms(total) = 0.77112E-04    rms(broyden)= 0.77108E-04
  rms(prec ) = 0.88613E-04
  weight for this iteration     100.00

 eigenvalues of (default mixing * dielectric matrix)
  average eigenvalue GAMMA=   1.7649
  5.7691  5.7691  2.7423  2.7423  2.1704  1.4269  1.4269  1.0767  1.0767  0.9266
  0.8297  0.6135  0.5956  0.3124  0.3783  0.3816

[...]

----------------------------------------- Iteration    1(  22)  ---------------------------------------

 eigenvalue-minimisations  :  1229
 total energy-change (2. order) :-0.5973518E-05  (-0.1065041E-07)
 number of electron      43.9999826 magnetization
 augmentation part       28.0966250 magnetization

 Free energy of the ion-electron system (eV)
  alpha Z        PSCENC =        95.91655142
  Ewald energy   TEWEN  =     16486.15309932
  -1/2 Hartree   DENC   =    -21786.81461311
  -exchange  EXHF       =         0.00000000
  -V(xc)+E(xc)   XCENC  =       178.01182241
  PAW double counting   =      5204.09532926    -5634.41025789
  entropy T*S    EENTRO =        -0.00455927
  eigenvalues    EBANDS =      -120.80423044
  atomic energy  EATOM  =      5563.88447798
  free energy    TOTEN  =       -13.97238032 eV

  energy without entropy =      -13.96782105  energy(sigma->0) =      -13.97086057

 average (electrostatic) potential at core
  the test charge radii are     0.9430
  (the norm of the test charge is              1.0000)
       1 -70.8607       2 -71.2105       3 -70.8880       4 -71.2293

 E-fermi :   0.0277     XC(G=0):  -5.8320     alpha+bet : -5.1984

 k-point   1 :       0.0000    0.0000    0.0000
  band No.  band energies     occupation
      1      -8.7582      2.00000
      2      -7.4363      2.00000
      3      -5.7732      2.00000
      4      -4.9784      2.00000
      5      -3.0040      2.00000
      6      -2.9145      2.00000
      7      -2.9145      2.00000
      8      -2.8871      2.00000
      9      -2.8672      2.00000
     10      -2.8672      2.00000
     11      -2.5914      2.00000
     12      -2.5659      2.00000
     13      -2.5659      2.00000
     14      -2.5015      2.00000
     15      -2.5015      2.00000
     16      -2.0911      2.00000
     17      -2.0911      2.00000
     18      -1.9403      2.00000
     19      -1.9403      2.00000
     20      -1.6097      2.00000
     21      -1.6097      2.00000
     22      -1.5041      2.00000
     23      -1.5041      2.00000
     24      -1.0721      2.00000
     25      -0.0662      1.70592
     26       4.3363      0.00000
     27       4.4677      0.00000
     28       5.7570      0.00000
     29       6.1148      0.00000
     30       7.9062      0.00000
     31       7.4072      0.00000
     32       8.7159      0.00000

[...]

 k-point  49 :      -0.4615    0.4615    0.0000
  band No.  band energies     occupation
      1      -4.7656      2.00000
      2      -4.5991      2.00000
      3      -4.2042      2.00000
      4      -4.1083      2.00000
      5      -3.9583      2.00000
      6      -3.6506      2.00000
      7      -3.0816      2.00000
      8      -2.9499      2.00000
      9      -2.7986      2.00000
     10      -2.6118      2.00000
     11      -2.3042      2.00000
     12      -2.2846      2.00000
     13      -1.7747      2.00000
     14      -1.7596      2.00000
     15      -1.6052      2.00000
     16      -1.5904      2.00000
     17      -1.5772      2.00000
     18      -1.4929      2.00000
     19      -1.2562      2.00000
     20      -1.2310      2.00000
     21      -0.4649      2.00273
     22       0.3295     -0.05449
     23       1.3498      0.00000
     24       2.1615      0.00000
     25       4.3629      0.00000
     26       5.3584      0.00000
     27       6.0244      0.00000
     28       7.6545      0.00000
     29       8.1769      0.00000
     30       7.2206      0.00000
     31       7.0933      0.00000
     32       7.4220      0.00000

 soft charge-density along one line, spin component           1
         0         1         2         3         4         5         6         7         8         9
 total charge-density along one line

------------------------ aborting loop because EDIFF is reached ----------------------------------------

  FORCE on cell =-STRESS in cart. coord.  units (eV):
  Direction    XX          YY          ZZ          XY          YZ          ZX
  Alpha Z    95.91655    95.91655    95.91655
  Ewald   19398.04516 19398.04619-22309.93928     0.00089     0.00050    -0.00087
  Hartree 20861.78671 20861.78760-19936.76759     0.00078     0.00028    -0.00048
  E(xc)    -256.75624  -256.75621  -257.28071     0.00003     0.00000     0.00000
  Local  -40748.33660-40748.34136 41756.35048    -0.00412    -0.00077     0.00134
  n-local   -91.72045   -83.18551   -88.80455    -2.46407     0.20469     0.11740
  augment   377.95490   377.95731   379.67691     0.00209    -0.00001     0.00002
  Kinetic   364.66227   350.43536   360.45122     4.10688     0.45494     0.26267
  Fock        0.00000     0.00000     0.00000     0.00000     0.00000     0.00000
  Total      -1.29357    -1.29420    -0.39697    -0.00055     0.00000     0.00000
  in kB     -16.98876   -16.99703    -5.21350    -0.00716     0.00001    -0.00001

 VOLUME and BASIS-vectors are now :
  energy-cutoff  :      450.00
  volume of cell :      121.99
      direct lattice vectors                 reciprocal lattice vectors
     2.571700096  0.000000000  0.000000000     0.388847829  0.224501399  0.000000000
    -1.285850048  2.227157614  0.000000000     0.000000000  0.449002798  0.000000000
     0.000000000  0.000000000 21.299400330     0.000000000  0.000000000  0.046949679

  length of vectors
     2.571700096  2.571700096 21.299400330     0.449002798  0.449002798  0.046949679

 FORCES acting on ions
    electron-ion (+dipol)            ewald-force                    non-local-force                 convergence-correction
   0.265E-03 -.145E-03 0.347E+04   -.267E-03 0.155E-03 -.347E+04   -.552E-05 0.319E-05 -.207E+01   -.124E-05 0.715E-06 0.220E-02
   -.620E-03 0.357E-03 0.117E+04   0.634E-03 -.367E-03 -.117E+04   -.105E-04 0.606E-05 -.427E+00   0.269E-06 -.155E-06 -.766E-03
   0.312E-03 -.188E-03 -.348E+04   -.319E-03 0.185E-03 0.348E+04   0.785E-05 -.453E-05 0.216E+01   0.265E-05 -.153E-05 -.284E-02
   0.411E-04 -.331E-04 -.116E+04   -.479E-04 0.267E-04 0.116E+04   0.220E-04 -.127E-04 0.340E+00   0.115E-05 -.666E-06 -.962E-03
   -.190E-05 -.976E-05 0.108E-01   0.255E-13 -.154E-12 0.227E-12   0.138E-04 -.799E-05 -.507E-02   0.284E-05 -.164E-05 -.237E-02

 POSITION                                       TOTAL-FORCE (eV/Angst)
      0.00000      0.00000      0.00000        -0.000018      0.000010      0.099356
     -0.00001      1.48478      2.09991         0.000000      0.000000     -0.111219
     -1.28583      2.22715      6.25927         0.000002     -0.000001      0.004362
      1.28585      0.74238      4.18903         0.000016     -0.000009      0.007501
    total drift:                                0.000015     -0.000019      0.003325

  FREE ENERGIE OF THE ION-ELECTRON SYSTEM (eV)
  free  energy   TOTEN  =       -13.97238032 eV

  energy  without entropy=      -13.96782105  energy(sigma->0) =      -13.97086057

 reached required accuracy - stopping structural energy minimisation